p cnf 367 675
10 0
53 0
76 0
75 0
-1 -55 0
-2 -56 0
-3 -57 0
-4 -58 0
-5 -59 0
-6 -60 0
-7 -61 0
-8 -62 0
-11 -63 0
-12 -64 0
-13 -65 0
-14 -66 0
-15 -67 0
-16 -68 0
-17 -69 0
-18 -70 0
-19 -71 0
-20 -72 0
-21 -77 0
-22 -78 0
-23 -79 0
-24 -80 0
-25 -81 0
-26 -82 0
-27 -83 0
-28 -84 0
-29 -85 0
-30 -86 0
-31 -87 0
-32 -90 0
-33 -91 0
-34 -92 0
-35 -93 0
-36 -94 0
-37 -95 0
-38 -96 0
-39 -97 0
-40 -98 0
-41 -99 0
-43 -101 0
-44 -102 0
-45 -103 0
-46 -104 0
-47 -105 0
-48 -106 0
-49 -107 0
-50 -108 0
-117 -323 0
-118 -324 0
-119 -325 0
-120 -326 0
-121 -327 0
-122 -328 0
-123 -329 0
-136 -287 0
-137 -288 0
-138 -289 0
-139 -290 0
-140 -291 0
-141 -292 0
-142 -293 0
-143 -294 0
-144 -295 0
-145 -296 0
-146 -297 0
-157 -264 0
-158 -265 0
-159 -266 0
-160 -267 0
-161 -268 0
-162 -269 0
-163 -270 0
-164 -271 0
-165 -272 0
-166 -330 0
-167 -331 0
-168 -332 0
-169 -333 0
-170 -334 0
-171 -335 0
-172 -336 0
-173 -337 0
-174 -338 0
-175 -339 0
-176 -340 0
-187 -243 0
-188 -244 0
-189 -245 0
-190 -246 0
-191 -247 0
-192 -248 0
-193 -249 0
-194 -250 0
-195 -251 0
-196 -302 0
-197 -303 0
-198 -304 0
-199 -305 0
-200 -306 0
-201 -307 0
-202 -308 0
-203 -309 0
-204 -310 0
-205 -358 0
-206 -359 0
-207 -360 0
-208 -361 0
-209 -362 0
-210 -363 0
-211 -364 0
-212 -365 0
-213 -366 0
-226 -343 0
-227 -344 0
-228 -345 0
-229 -346 0
-230 -347 0
-231 -348 0
-232 -349 0
-1 -13 0
-2 -14 0
-3 -15 0
-4 -16 0
-5 -17 0
-6 -18 0
-7 -19 0
-8 -20 0
-1 -23 0
-2 -24 0
-3 -25 0
-4 -26 0
-5 -27 0
-6 -28 0
-7 -29 0
-8 -30 0
-9 -31 0
-1 -33 0
-2 -34 0
-3 -35 0
-4 -36 0
-5 -37 0
-6 -38 0
-7 -39 0
-8 -40 0
-9 -41 0
-1 -43 0
-2 -44 0
-3 -45 0
-4 -46 0
-5 -47 0
-6 -48 0
-7 -49 0
-8 -50 0
-9 -51 0
-11 -21 0
-12 -22 0
-13 -23 0
-14 -24 0
-15 -25 0
-16 -26 0
-17 -27 0
-18 -28 0
-19 -29 0
-20 -30 0
-12 -32 0
-13 -33 0
-14 -34 0
-15 -35 0
-16 -36 0
-17 -37 0
-18 -38 0
-19 -39 0
-20 -40 0
-13 -43 0
-14 -44 0
-15 -45 0
-16 -46 0
-17 -47 0
-18 -48 0
-19 -49 0
-20 -50 0
-22 -32 0
-23 -33 0
-24 -34 0
-25 -35 0
-26 -36 0
-27 -37 0
-28 -38 0
-29 -39 0
-30 -40 0
-31 -41 0
-23 -43 0
-24 -44 0
-25 -45 0
-26 -46 0
-27 -47 0
-28 -48 0
-29 -49 0
-30 -50 0
-31 -51 0
-33 -43 0
-34 -44 0
-35 -45 0
-36 -46 0
-37 -47 0
-38 -48 0
-39 -49 0
-40 -50 0
-41 -51 0
-42 -52 0
-54 -64 0
-55 -65 0
-56 -66 0
-57 -67 0
-58 -68 0
-59 -69 0
-60 -70 0
-61 -71 0
-62 -72 0
-54 -78 0
-55 -79 0
-56 -80 0
-57 -81 0
-58 -82 0
-59 -83 0
-60 -84 0
-61 -85 0
-62 -86 0
-54 -90 0
-55 -91 0
-56 -92 0
-57 -93 0
-58 -94 0
-59 -95 0
-60 -96 0
-61 -97 0
-62 -98 0
-54 -100 0
-55 -101 0
-56 -102 0
-57 -103 0
-58 -104 0
-59 -105 0
-60 -106 0
-61 -107 0
-62 -108 0
-63 -77 0
-64 -78 0
-65 -79 0
-66 -80 0
-67 -81 0
-68 -82 0
-69 -83 0
-70 -84 0
-71 -85 0
-72 -86 0
-73 -87 0
-74 -88 0
-63 -89 0
-64 -90 0
-65 -91 0
-66 -92 0
-67 -93 0
-68 -94 0
-69 -95 0
-70 -96 0
-71 -97 0
-72 -98 0
-73 -99 0
-64 -100 0
-65 -101 0
-66 -102 0
-67 -103 0
-68 -104 0
-69 -105 0
-70 -106 0
-71 -107 0
-72 -108 0
-77 -89 0
-78 -90 0
-79 -91 0
-80 -92 0
-81 -93 0
-82 -94 0
-83 -95 0
-84 -96 0
-85 -97 0
-86 -98 0
-87 -99 0
-78 -100 0
-79 -101 0
-80 -102 0
-81 -103 0
-82 -104 0
-83 -105 0
-84 -106 0
-85 -107 0
-86 -108 0
-90 -100 0
-91 -101 0
-92 -102 0
-93 -103 0
-94 -104 0
-95 -105 0
-96 -106 0
-97 -107 0
-98 -108 0
-109 2 0
-110 3 0
-111 4 0
-112 5 0
-113 6 0
-114 7 0
-115 8 0
-116 9 0
-235 55 0
-236 56 0
-237 57 0
-238 58 0
-239 59 0
-240 60 0
-241 61 0
-242 62 0
-117 34 0
-118 35 0
-119 36 0
-120 37 0
-121 38 0
-122 39 0
-123 40 0
-124 41 0
-125 42 0
-243 91 0
-244 92 0
-245 93 0
-246 94 0
-247 95 0
-248 96 0
-249 97 0
-250 98 0
-251 99 0
-126 11 0
-127 12 0
-128 13 0
-129 14 0
-130 15 0
-131 16 0
-132 17 0
-133 18 0
-134 19 0
-135 20 0
-252 64 0
-253 65 0
-254 66 0
-255 67 0
-256 68 0
-257 69 0
-258 70 0
-259 71 0
-260 72 0
-261 73 0
-262 74 0
-263 75 0
-136 21 0
-137 22 0
-138 23 0
-139 24 0
-140 25 0
-141 26 0
-142 27 0
-143 28 0
-144 29 0
-145 30 0
-146 31 0
-264 78 0
-265 79 0
-266 80 0
-267 81 0
-268 82 0
-269 83 0
-270 84 0
-271 85 0
-272 86 0
-273 87 0
-274 88 0
-147 22 0
-148 23 0
-149 24 0
-150 25 0
-151 26 0
-152 27 0
-153 28 0
-154 29 0
-155 30 0
-156 31 0
-275 77 0
-276 78 0
-277 79 0
-278 80 0
-279 81 0
-280 82 0
-281 83 0
-282 84 0
-283 85 0
-284 86 0
-285 87 0
-286 88 0
-157 12 0
-158 13 0
-159 14 0
-160 15 0
-161 16 0
-162 17 0
-163 18 0
-164 19 0
-165 20 0
-287 63 0
-288 64 0
-289 65 0
-290 66 0
-291 67 0
-292 68 0
-293 69 0
-294 70 0
-295 71 0
-296 72 0
-297 73 0
-298 74 0
-299 75 0
-166 32 0
-167 33 0
-168 34 0
-169 35 0
-170 36 0
-171 37 0
-172 38 0
-173 39 0
-174 40 0
-175 41 0
-176 42 0
-300 89 0
-301 90 0
-302 91 0
-303 92 0
-304 93 0
-305 94 0
-306 95 0
-307 96 0
-308 97 0
-309 98 0
-310 99 0
-177 33 0
-178 34 0
-179 35 0
-180 36 0
-181 37 0
-182 38 0
-183 39 0
-184 40 0
-185 41 0
-186 42 0
-311 90 0
-312 91 0
-313 92 0
-314 93 0
-315 94 0
-316 95 0
-317 96 0
-318 97 0
-319 98 0
-320 99 0
-187 1 0
-188 2 0
-189 3 0
-190 4 0
-191 5 0
-192 6 0
-193 7 0
-194 8 0
-195 9 0
-321 54 0
-322 55 0
-323 56 0
-324 57 0
-325 58 0
-326 59 0
-327 60 0
-328 61 0
-329 62 0
-196 23 0
-197 24 0
-198 25 0
-199 26 0
-200 27 0
-201 28 0
-202 29 0
-203 30 0
-204 31 0
-330 78 0
-331 79 0
-332 80 0
-333 81 0
-334 82 0
-335 83 0
-336 84 0
-337 85 0
-338 86 0
-339 87 0
-340 88 0
-205 43 0
-206 44 0
-207 45 0
-208 46 0
-209 47 0
-210 48 0
-211 49 0
-212 50 0
-213 51 0
-214 52 0
-215 53 0
-341 100 0
-342 101 0
-343 102 0
-344 103 0
-345 104 0
-346 105 0
-347 106 0
-348 107 0
-349 108 0
-216 44 0
-217 45 0
-218 46 0
-219 47 0
-220 48 0
-221 49 0
-222 50 0
-223 51 0
-224 52 0
-225 53 0
-350 101 0
-351 102 0
-352 103 0
-353 104 0
-354 105 0
-355 106 0
-356 107 0
-357 108 0
-226 34 0
-227 35 0
-228 36 0
-229 37 0
-230 38 0
-231 39 0
-232 40 0
-233 41 0
-234 42 0
-358 91 0
-359 92 0
-360 93 0
-361 94 0
-362 95 0
-363 96 0
-364 97 0
-365 98 0
-366 99 0
109 117 -1 0
110 118 -2 0
111 119 -3 0
112 120 -4 0
113 121 -5 0
114 122 -6 0
115 123 -7 0
116 124 -8 0
125 -9 0
126 136 -10 0
127 137 -11 0
128 138 -12 0
129 139 -13 0
130 140 -14 0
131 141 -15 0
132 142 -16 0
133 143 -17 0
134 144 -18 0
135 145 -19 0
146 -20 0
147 157 166 -21 0
148 158 167 -22 0
149 159 168 -23 0
150 160 169 -24 0
151 161 170 -25 0
152 162 171 -26 0
153 163 172 -27 0
154 164 173 -28 0
155 165 174 -29 0
156 175 -30 0
176 -31 0
177 187 196 205 -32 0
178 188 197 206 -33 0
179 189 198 207 -34 0
180 190 199 208 -35 0
181 191 200 209 -36 0
182 192 201 210 -37 0
183 193 202 211 -38 0
184 194 203 212 -39 0
185 195 204 213 -40 0
186 214 -41 0
215 -42 0
216 226 -43 0
217 227 -44 0
218 228 -45 0
219 229 -46 0
220 230 -47 0
221 231 -48 0
222 232 -49 0
223 233 -50 0
224 234 -51 0
225 -52 0
235 243 -54 0
236 244 -55 0
237 245 -56 0
238 246 -57 0
239 247 -58 0
240 248 -59 0
241 249 -60 0
242 250 -61 0
251 -62 0
252 264 -63 0
253 265 -64 0
254 266 -65 0
255 267 -66 0
256 268 -67 0
257 269 -68 0
258 270 -69 0
259 271 -70 0
260 272 -71 0
261 273 -72 0
262 274 -73 0
263 -74 0
275 287 300 -76 0
276 288 301 -77 0
277 289 302 -78 0
278 290 303 -79 0
279 291 304 -80 0
280 292 305 -81 0
281 293 306 -82 0
282 294 307 -83 0
283 295 308 -84 0
284 296 309 -85 0
285 297 310 -86 0
286 298 -87 0
299 -88 0
311 321 330 341 -89 0
312 322 331 342 -90 0
313 323 332 343 -91 0
314 324 333 344 -92 0
315 325 334 345 -93 0
316 326 335 346 -94 0
317 327 336 347 -95 0
318 328 337 348 -96 0
319 329 338 349 -97 0
320 339 -98 0
340 -99 0
350 358 -100 0
351 359 -101 0
352 360 -102 0
353 361 -103 0
354 362 -104 0
355 363 -105 0
356 364 -106 0
357 365 -107 0
366 -108 0
